p edge 77 396
e 1 2
e 1 3
e 1 4
e 1 5
e 1 6
e 1 7
e 1 8
e 1 9
e 1 10
e 1 11
e 2 3
e 2 5
e 2 6
e 2 7
e 2 8
e 2 9
e 2 10
e 2 11
e 3 4
e 3 5
e 3 6
e 3 7
e 3 8
e 3 9
e 3 10
e 3 11
e 3 12
e 3 60
e 4 5
e 4 6
e 4 7
e 4 8
e 4 9
e 4 10
e 4 11
e 4 13
e 4 14
e 4 29
e 5 6
e 5 7
e 5 8
e 5 9
e 5 10
e 5 11
e 6 7
e 6 8
e 6 9
e 6 10
e 6 11
e 6 15
e 6 16
e 6 17
e 6 18
e 6 49
e 7 8
e 7 9
e 7 10
e 7 11
e 8 9
e 8 10
e 8 11
e 8 19
e 9 10
e 9 11
e 10 11
e 10 69
e 10 55
e 11 18
e 12 31
e 12 32
e 12 33
e 12 13
e 12 34
e 12 17
e 12 35
e 12 37
e 12 38
e 12 39
e 13 32
e 13 33
e 13 34
e 13 17
e 13 35
e 13 36
e 13 37
e 13 38
e 14 42
e 14 43
e 14 18
e 14 44
e 14 46
e 14 47
e 14 48
e 14 49
e 14 50
e 14 30
e 15 20
e 15 21
e 15 22
e 15 19
e 15 23
e 15 25
e 15 16
e 15 26
e 15 27
e 16 21
e 16 22
e 16 19
e 16 23
e 16 24
e 16 26
e 16 27
e 17 31
e 17 32
e 17 33
e 17 34
e 17 35
e 17 36
e 17 37
e 17 38
e 18 43
e 18 44
e 18 46
e 18 47
e 18 48
e 18 49
e 18 50
e 19 20
e 19 21
e 19 22
e 19 23
e 19 24
e 19 25
e 19 26
e 19 27
e 20 21
e 20 22
e 20 23
e 20 24
e 20 25
e 20 26
e 20 27
e 21 22
e 21 23
e 21 24
e 21 25
e 21 27
e 22 23
e 22 24
e 22 25
e 22 26
e 22 28
e 22 29
e 23 24
e 23 25
e 23 27
e 23 75
e 24 25
e 24 26
e 24 27
e 25 26
e 25 27
e 26 27
e 26 42
e 27 30
e 27 75
e 28 53
e 28 54
e 28 55
e 28 56
e 28 30
e 28 57
e 28 58
e 28 59
e 28 60
e 28 29
e 28 64
e 29 53
e 29 54
e 29 55
e 29 56
e 29 30
e 29 57
e 29 58
e 29 59
e 29 60
e 29 75
e 30 53
e 30 54
e 30 56
e 30 57
e 30 58
e 30 59
e 30 60
e 31 32
e 31 33
e 31 34
e 31 35
e 31 36
e 31 37
e 31 38
e 32 33
e 32 34
e 32 35
e 32 36
e 32 37
e 32 38
e 33 34
e 33 35
e 33 36
e 33 37
e 33 38
e 33 40
e 34 35
e 34 37
e 34 38
e 35 36
e 35 37
e 35 38
e 36 37
e 36 38
e 36 41
e 37 38
e 39 41
e 39 61
e 39 62
e 39 63
e 39 64
e 39 65
e 39 66
e 39 40
e 39 68
e 40 41
e 40 61
e 40 62
e 40 63
e 40 64
e 40 65
e 40 66
e 40 67
e 40 68
e 40 69
e 41 61
e 41 62
e 41 63
e 41 64
e 41 65
e 41 66
e 41 67
e 41 68
e 42 43
e 42 44
e 42 45
e 42 46
e 42 47
e 42 48
e 42 49
e 42 50
e 43 44
e 43 45
e 43 46
e 43 47
e 43 49
e 43 50
e 44 45
e 44 46
e 44 47
e 44 48
e 44 49
e 44 50
e 45 46
e 45 47
e 45 48
e 45 49
e 45 50
e 46 47
e 46 48
e 46 49
e 46 50
e 46 51
e 47 48
e 47 49
e 47 50
e 47 52
e 48 49
e 48 50
e 48 52
e 49 50
e 51 69
e 51 70
e 51 71
e 51 72
e 51 73
e 51 74
e 51 75
e 51 76
e 51 52
e 51 77
e 52 69
e 52 70
e 52 71
e 52 72
e 52 73
e 52 74
e 52 75
e 52 76
e 52 77
e 53 54
e 53 55
e 53 56
e 53 57
e 53 58
e 53 59
e 53 60
e 54 55
e 54 56
e 54 57
e 54 58
e 54 59
e 55 56
e 55 57
e 55 58
e 55 59
e 55 60
e 56 57
e 56 58
e 56 59
e 56 60
e 57 58
e 57 59
e 57 60
e 58 59
e 58 60
e 59 60
e 61 62
e 61 63
e 61 64
e 61 65
e 61 67
e 61 68
e 62 63
e 62 65
e 62 66
e 62 67
e 62 68
e 62 71
e 63 64
e 63 65
e 63 66
e 63 67
e 63 68
e 64 65
e 64 66
e 64 67
e 64 68
e 65 66
e 65 67
e 65 68
e 66 67
e 66 68
e 67 68
e 69 70
e 69 71
e 69 73
e 69 74
e 69 75
e 69 76
e 69 77
e 70 71
e 70 72
e 70 73
e 70 74
e 70 75
e 70 76
e 70 77
e 71 72
e 71 73
e 71 74
e 71 75
e 71 76
e 71 77
e 72 73
e 72 74
e 72 75
e 72 76
e 72 77
e 73 74
e 73 75
e 73 76
e 73 77
e 74 75
e 74 76
e 74 77
e 75 76
e 75 77
e 76 77
l 18
t 17 72
